proyfinal/src/viki/013/andrea/andrea-localstore/experimentInOfficeAgust.take6/worker_8/e00c7922-7162-42a3-b6ff-b9ca56a10841.als.cnf.out
Reading from standard input... Use '--help' for help.
============================[ Problem Statistics ]=============================
|                                                                             |
|  Number of variables:         87638                                         |
|  Number of clauses:          161767                                         |
|  Parse time:                   0.03 s                                       |
|                                                                             |
============================[ Search Statistics ]==============================
| Conflicts |          ORIGINAL         |          LEARNT          | Progress |
|           |    Vars  Clauses Literals |    Limit  Clauses Lit/Cl |          |
===============================================================================
|       100 |   64564   113344   281986 |    41559      100     10 | 26.329 % |
|       250 |   64564   113344   281986 |    45715      250     46 | 26.329 % |
|       475 |   64564   113344   281986 |    50286      475     76 | 26.329 % |
|       812 |   64563   113300   281896 |    55315      811     73 | 26.330 % |
|      1318 |   64545   113226   281725 |    60847     1316     72 | 26.350 % |
|      2077 |   61399   102552   255177 |    66931     2068     70 | 29.940 % |
|      3216 |   61399   102552   255177 |    73625     3207     60 | 29.940 % |
|      4924 |   61329   102209   254442 |    80987     3852     61 | 30.020 % |
|      7486 |   61311   102135   254271 |    89086     5792     57 | 30.041 % |
|     11330 |   61204   101693   253165 |    97995     9316     67 | 30.163 % |
|     17096 |   61204   101693   253165 |   107794    15082     69 | 30.163 % |
===============================================================================
restarts              : 63
conflicts             : 19141          (8774 /sec)
decisions             : 57884          (0.00 % random) (26532 /sec)
propagations          : 27243271       (12487553 /sec)
conflict literals     : 1282672        (46.00 % deleted)
Memory used           : 36.33 MB
CPU time              : 2.18163 s

INDETERMINATE
